\* Source Pyomo model name=unknown *\

min 
x43:
+0.0010262531037758169 x1
+0 x10
+0 x11
+0.015374677646626757 x12
+0.042763000328211627 x13
+0.00093585613329385598 x14
+0.00095394174726495134 x15
+0.00098359630000902564 x16
+0 x17
+0.0010507977428246126 x2
+0.00098851191631480688 x3
+0.00097466878895487706 x4
+0.0010103795370159829 x5
+0 x6
+0.0010197723175112455 x7
+0.021435695131824101 x8
+0 x9

s.t.

c_e_x44_:
-1 x18
+1 x8
= 0

c_e_x45_:
+1 x12
-1 x19
= 0

c_e_x46_:
+1 x13
-1 x20
= 0

c_e_x47_:
+1 x1
-0.54023009383096188 x34
= 0

c_e_x48_:
+1 x2
-0.79920918807492336 x35
= 0

c_e_x49_:
+1 x3
-0.8102427815418084 x36
= 0

c_e_x50_:
-0.92673653743478257 x37
+1 x4
= 0

c_e_x51_:
+1 x15
-0.09092243021716688 x38
= 0

c_e_x52_:
-0.67605302103476828 x39
+1 x7
= 0

c_e_x53_:
-0.71636238167817834 x40
+1 x5
= 0

c_e_x54_:
+1 x16
-1.5482594694226854 x41
= 0

c_e_x55_:
-1 x18
+1 x34
= 0

c_e_x56_:
-1 x28
+1 x35
= 0

c_e_x57_:
-1 x20
+1 x36
= 0

c_e_x58_:
-1 x19
+1 x37
= 0

c_e_x59_:
-1 x24
+1 x38
= 0

c_e_x60_:
-1 x25
+1 x39
= 0

c_e_x61_:
-1 x26
+1 x40
= 0

c_e_x62_:
-1 x27
+1 x41
= 0

c_e_x63_:
-1 x18
+1 x34
= 0

c_e_x64_:
-1 x19
+1 x37
= 0

c_e_x65_:
-1 x20
+1 x36
= 0

c_e_x66_:
-1 x24
+1 x38
= 0

c_e_x67_:
-1 x25
+1 x39
= 0

c_e_x68_:
-1 x26
+1 x40
= 0

c_e_x69_:
-1 x27
+1 x41
= 0

c_e_x70_:
-1 x28
+1 x35
= 0

c_e_x71_:
+1 x1
-1 x21
= 0

c_e_x72_:
-1 x22
+1 x4
= 0

c_e_x73_:
-1 x23
+1 x3
= 0

c_e_x74_:
+1 x15
-1 x29
= 0

c_e_x75_:
-1 x30
+1 x7
= 0

c_e_x76_:
-1 x31
+1 x5
= 0

c_e_x77_:
+1 x16
-1 x32
= 0

c_e_x78_:
+1 x2
-1 x33
= 0

c_e_x79_:
+1 x33
= 797.4884503152141

c_e_x80_:
+1 x29
= 8.3132191526000891

c_e_x81_:
+1 x30
= 22.817652581060383

c_e_x82_:
+1 x31
= 124.39393331951669

c_e_x83_:
+1 x32
= 409.74538438211124

c_e_x84_:
-1 x33
+1 x9
= 0

c_e_x85_:
+1 x17
-1 x29
= 0

c_e_x86_:
-1 x30
+1 x6
= 0

c_e_x87_:
+1 x10
-1 x31
= 0

c_e_x88_:
+1 x11
-1 x32
= 0

c_e_x89_:
+1 x21
+1 x22
+1 x23
-1 x24
-1 x25
-1 x26
-1 x27
-1 x28
= 0

c_e_x90_:
+1 x14
-1 x21
-1 x22
-1 x23
= 0

c_e_x91_:
+0.073200000000000001 x12
+0 x13
-1 x42
+0 x8
= 0

c_u_x92_:
+1 x42
<= 87.213999999999999

c_e_ONE_VAR_CONSTANT: 
ONE_VAR_CONSTANT = 1.0

bounds
   0 <= x1 <= 999999
   0 <= x2 <= 999999
   0 <= x3 <= 999999
   0 <= x4 <= 999999
   0 <= x5 <= 999999
   0 <= x6 <= +inf
   0 <= x7 <= 999999
   403.49738200473092 <= x8 <= 403.49738200473092
   0 <= x9 <= +inf
   0 <= x10 <= +inf
   0 <= x11 <= +inf
   0 <= x12 <= +inf
   0 <= x13 <= +inf
   0 <= x14 <= +inf
   0 <= x15 <= 999999
   0 <= x16 <= 999999
   0 <= x17 <= +inf
   0 <= x18 <= +inf
   0 <= x19 <= +inf
   0 <= x20 <= +inf
   0 <= x21 <= +inf
   0 <= x22 <= +inf
   0 <= x23 <= +inf
   0 <= x24 <= +inf
   0 <= x25 <= +inf
   0 <= x26 <= +inf
   0 <= x27 <= +inf
   0 <= x28 <= +inf
   0 <= x29 <= +inf
   0 <= x30 <= +inf
   0 <= x31 <= +inf
   0 <= x32 <= +inf
   0 <= x33 <= +inf
   0 <= x34 <= +inf
   0 <= x35 <= +inf
   0 <= x36 <= +inf
   0 <= x37 <= +inf
   0 <= x38 <= +inf
   0 <= x39 <= +inf
   0 <= x40 <= +inf
   0 <= x41 <= +inf
   0 <= x42 <= +inf
end
